# x   |  y    | demand	| numItems | l - w (for each item)
0.0	0.0	0.0	0
3.0	5.0	33.0	5	6	8	5	8	12	5	4	4	5	2
2.5	9.0	15.0	4	5	8	8	7	12	3	7	3
48.0	16.0	10.0	5	4	5	11	4	6	4	7	3	6	2
48.0	17.0	40.0	1	6	4
69.0	16.0	15.0	5	6	5	21	4	5	3	20	2	6	2
70.0	16.0	5.0	1	20	2
64.0	13.0	77.0	5	11	4	9	4	6	4	9	3	4	2
3.0	-22.0	435.0	3	6	10	6	6	6	3
2.5	1.0	165.0	3	5	9	4	9	18	3
-13.0	11.5	120.0	5	13	4	5	4	8	3	6	3	5	3
-20.0	45.0	65.0	2	12	2	7	2
-9.0	52.0	23.0	1	17	3
-8.5	53.0	18.0	1	12	5
-8.0	52.0	550.0	2	4	9	18	3
2.0	2.0	78.0	1	5	3
-2.0	9.0	627.0	2	8	9	6	6
-10.0	20.0	9.0	2	5	9	18	2
-20.0	19.0	96.0	2	23	3	10	3
-15.0	-21.0	116.0	2	6	7	21	4
-5.0	-9.0	116.0	1	9	4
-4.5	-9.0	83.0	5	8	8	12	4	10	4	14	2	4	2
-52.0	-36.0	41.0	5	6	6	10	5	5	5	17	3	9	2
-53.0	-36.0	645.0	3	8	10	4	9	12	5
0.0	0.0	694.0	1	4	4
-30.0	-18.0	573.0	3	7	10	12	5	9	4
-51.0	-35.0	1.0	2	4	9	16	3
81.0	9.0	181.0	1	7	5
84.0	-99.0	106.0	1	10	3
82.0	-6.0	52.0	5	21	4	20	4	12	4	5	4	5	2
40.0	-12.0	117.0	5	5	9	10	4	9	3	5	3	8	2
50.0	-7.0	52.0	1	6	3
51.0	-8.0	1300.0	3	7	6	18	3	6	3
63.0	-17.0	57.0	3	6	12	8	6	8	3
45.0	-1.0	28.0	5	7	6	8	4	22	3	10	3	6	3
54.0	8.5	84.0	3	5	5	9	4	19	3
29.0	4.0	1.0	2	8	7	23	3
21.0	3.0	54.0	2	8	5	21	3
22.0	2.0	19.0	2	7	10	7	3
39.0	-3.0	88.0	2	8	3	5	3
39.5	-3.0	41.0	2	23	4	5	3
40.0	-11.0	238.0	2	7	5	15	3
28.0	-2.0	66.0	3	20	3	10	3	6	3
24.0	-18.0	44.0	5	5	8	9	5	5	5	6	4	5	4
24.0	-19.0	42.0	3	5	10	7	5	9	3